
  18    0


   0   9 2 3 4 5 6 7 8 16 17 
   7   3 15 12 11 
   5   3 12 11 10 
   6   2 14 10 
   2   1 13 
   3   1 9 
   5   1 9 
   3   1 9 
   4   1 18
   9   1 18
   2   1 18
   2   1 18
   4   1 18
   4   1 18
   3   1 18
   8   1 18
   3   1 18
   0   0 
